Route #1: 55 3 38 34 42 21 62 23 50 35 28 37 2 19 51 46
Route #2: 1 33 5 40 63 52 53 59 36 24 44 43 54 22 27 7 20 26 25 11 8 13 15 12 18 39 58
Route #3: 14 60 32 45 9 16 57 41 10 48 4 31 17 47
Route #4: 29 61 6 56 30 49
Route #5: 
Route #6: 
Route #7: 
Route #8: 
Route #9: 
Route #10: 
cost 1752.3545340467504
